p cnf 15 48
4 7 11 16 22 0
8 12 17 23 30 0
13 18 24 31 39 0
-4 -8 0
-7 -12 0
-11 -17 0
-16 -23 0
-22 -30 0
-4 -13 0
-7 -18 0
-11 -24 0
-16 -31 0
-22 -39 0
-8 -13 0
-12 -18 0
-17 -24 0
-23 -31 0
-30 -39 0
-7 -17 0
-7 -23 0
-11 -23 0
-11 -30 0
-16 -30 0
-7 -24 0
-7 -31 0
-11 -31 0
-11 -39 0
-16 -39 0
-12 -11 0
-12 -16 0
-17 -16 0
-17 -22 0
-23 -22 0
-12 -24 0
-12 -31 0
-17 -31 0
-17 -39 0
-23 -39 0
-18 -11 0
-18 -16 0
-24 -16 0
-24 -22 0
-31 -22 0
-18 -17 0
-18 -23 0
-24 -23 0
-24 -30 0
-31 -30 0
